NAME : susy-integer.-434586.tour
COMMENT : Length = -434586
COMMENT : Found by LKH [Keld Helsgaun] Wed May 19 15:00:10 2021
TYPE : TOUR
DIMENSION : 18
TOUR_SECTION
1
11
15
4
17
3
8
6
2
9
7
10
12
16
14
5
13
18
-1
EOF
